(set-info :smt-lib-version 2.6)
(set-logic QF_AUFLIA)
(set-info :source |Generator: Rodin SMT Plug-in|)
(set-info :license "https://creativecommons.org/licenses/by-nc/4.0/")
(set-info :category "industrial")
(set-info :status unsat)

(declare-sort Color 0)
(declare-sort Sensor 0)
(declare-fun il_in_10 () Bool)
(declare-fun il_out_10 () Bool)
(declare-fun ml_in_10 () Bool)
(declare-fun ml_out_10 () Bool)
(declare-fun A () Int)
(declare-fun B () Int)
(declare-fun C () Int)
(declare-fun IL_IN_SR () Sensor)
(declare-fun ML_IN_SR () Sensor)
(declare-fun ML_OUT_SR () Sensor)
(declare-fun a () Int)
(declare-fun b () Int)
(declare-fun c () Int)
(declare-fun d () Int)
(declare-fun green () Color)
(declare-fun il_tl () Color)
(declare-fun ml_tl () Color)
(declare-fun on () Sensor)

(assert (! (= ML_OUT_SR on)
         :named hyp1))
(assert (! (= ml_tl green)
         :named hyp2))
(assert (! (= c 0)
         :named hyp3))
(assert (! (not 
               ml_out_10)
         :named hyp4))
(assert (! (= IL_IN_SR on)
         :named hyp5))
(assert (! (not 
               il_in_10)
         :named hyp6))
(assert (! (= C 0)
         :named hyp7))
(assert (! (= A a)
         :named hyp8))
(assert (! (not 
               (= ML_IN_SR on))
         :named hyp9))
(assert (! (< (+ a b) d)
         :named hyp10))
(assert (! (< 0 a)
         :named hyp11))
(assert (! (not 
               (= il_tl green))
         :named hyp12))
(assert (! (not 
               il_out_10)
         :named hyp13))
(assert (! (= B b)
         :named hyp14))
(assert (! (not 
               ml_in_10)
         :named hyp15))
(assert (! (not 
               (< 0 (+ a 1)))
         :named goal))
(check-sat)
(exit)

